NAME : portcgen-18-26
COMMENT : portcgen N=18, seed=26
TYPE : TSP
DIMENSION : 18
EDGE_WEIGHT_TYPE : EUC_2D
NODE_COORD_SECTION
1 -195608 -63734
2 169656 -257171
3 -9620 -93905
4 -249982 389513
5 -200826 97209
6 197754 7667
7 -103874 24348
8 -389187 -117052
9 73345 257067
10 -54994 -398408
11 -319805 359073
12 -172014 -74539
13 -129724 256017
14 -182701 -310642
15 313973 -621006
16 46953 -235382
17 325356 221063
18 -201436 -359979
